(set-info :Origin "This instance was generated by: BanditFuzz-- an RL fuzzer for SMT solvers" )
(set-info :Author "Joe Scott, Fed Mora, Vijay Ganesh" )
(set-info :Contact "Joe Scott, joseph.scott@uwaterloo.ca")
; solvers/z3.sh
; 	time => 0.1777329444885254
; 	answer => err
; solvers/bitwuzla.sh
; 	time => 0.1727159023284912
; 	answer => err
; solvers/cvc4.sh
; 	time => 0.2634084224700928
; 	answer => err
(set-logic QF_BV)
(declare-const bool_0 Bool)
(declare-const bool_1 Bool)
(declare-const bool_2 Bool)
(declare-const bool_3 Bool)
(declare-const bool_4 Bool)
(declare-const bv_0 (_ BitVec 8))
(declare-const bv_1 (_ BitVec 8))
(declare-const bv_2 (_ BitVec 8))
(declare-const bv_3 (_ BitVec 8))
(declare-const bv_4 (_ BitVec 8))
(assert (and (bvult (bvsdiv bv_1 #x0000008e ) (bvlshr #x000000d6  #x00000090 )) (xor (=> bool_0 false) (bvsgt bv_3 #x00000005 ))))
(assert (bvslt (bvmul (bvsmod #x00000050  #x000000b8 ) (bvlshr #x0000005d  #x00000036 )) (bvmul (bvor bv_4 bv_1) (bvsmod #x0000007a  bv_4))))
(assert (bvule (bvand (bvor bv_1 #x00000022 ) (bvmul bv_1 #x00000015 )) (bvsmod (bvsdiv #x0000002f  #x0000005d ) (bvshl bv_3 #x000000f9 ))))
(assert (bvult (bvashr (bvadd bv_4 bv_3) (bvshl #x00000011  #x000000a4 )) (bvxnor (bvudiv #x00000048  bv_1) (bvor bv_2 #x000000de ))))
(assert (bvsgt (bvnor (bvnor bv_3 #x000000f5 ) (bvurem #x000000f2  #x0000007e )) (bvsrem (bvadd #x0000000f  bv_2) (bvashr bv_3 #x000000f1 ))))
(check-sat)
(exit)
